language ESSENCE' 1.0

letting jobs = 102
letting horizon = 799
letting resourcesRenew = 2
letting resourcesNonrenew = 2
letting resourceLimits = [69, 76, 391, 398]
letting successors = [[2, 3, 4, 5, 6, 7, 8, 10, 11, 12, 13, 14, 16, 17, 18, 20, 22, 23, 24, 31, 33, 34, 35, 41], [66, 60, 56, 53, 52, 47, 43, 42, 40, 30, 21, 9], [97, 96, 72, 66, 61, 58, 56, 54, 52, 44, 39, 32, 28, 19, 15], [87, 73, 66, 60, 57, 56, 45, 9], [98, 94, 93, 84, 73, 72, 71, 67, 65, 63, 60, 53, 48, 38, 36, 27], [101, 99, 95, 94, 92, 66, 64, 59, 57, 52, 50, 49, 42, 26, 25], [97, 96, 95, 72, 68, 67, 66, 60, 57, 52, 51, 50, 44, 37, 19], [100, 99, 98, 95, 92, 89, 84, 72, 67, 65, 59, 57, 53, 50, 49, 48, 45, 43, 42, 39], [100, 99, 98, 94, 86, 85, 72, 71, 65, 64, 63, 49, 48, 46, 44, 38, 26], [100, 99, 98, 95, 73, 72, 65, 56, 52, 50, 48, 42, 39, 29], [99, 98, 94, 93, 88, 71, 70, 65, 63, 62, 47, 46, 43, 38, 36], [100, 99, 97, 95, 93, 91, 90, 89, 72, 71, 70, 69, 68, 66, 65, 64, 63, 60, 59, 57, 54, 52, 51, 49], [98, 93, 86, 84, 73, 71, 69, 68, 66, 63, 56, 50, 49, 47, 45, 39, 38], [99, 96, 94, 87, 85, 71, 69, 68, 67, 66, 65, 57, 51, 49, 45, 44, 38], [99, 93, 91, 73, 62, 59, 51, 50, 49, 46, 30], [100, 99, 98, 96, 94, 93, 87, 86, 85, 82, 73, 71, 70, 69, 68, 65, 59, 47, 46, 45], [97, 94, 93, 92, 87, 86, 84, 71, 70, 68, 65, 55, 49, 47, 38], [99, 98, 96, 89, 87, 85, 73, 72, 63, 61, 59, 57, 53, 51, 30], [98, 94, 93, 92, 91, 90, 89, 87, 85, 84, 83, 79, 69, 65, 64, 59, 42], [98, 95, 94, 93, 92, 91, 90, 88, 87, 85, 84, 82, 81, 77, 72, 68, 66, 63, 57, 49], [101, 98, 96, 92, 91, 89, 87, 86, 85, 84, 82, 73, 68, 67, 59, 45, 44], [96, 95, 94, 92, 89, 87, 85, 84, 81, 76, 71, 66, 64, 62, 49], [95, 94, 86, 84, 83, 80, 69, 64, 63, 60, 43], [100, 99, 95, 91, 86, 85, 77, 70, 62, 49, 48], [98, 91, 89, 85, 83, 72, 68, 51, 44], [97, 96, 93, 91, 90, 89, 88, 83, 82, 79, 76, 70, 69, 68, 67], [100, 99, 95, 92, 89, 82, 81, 79, 77, 70, 69, 50], [100, 94, 93, 92, 88, 84, 80, 78, 77, 76, 63, 62], [97, 93, 91, 90, 89, 87, 86, 84, 81, 79, 77, 76, 69, 68], [100, 86, 83, 81, 79, 77, 76, 75, 70, 69, 64], [92, 90, 89, 83, 79, 75, 69, 68, 56], [95, 90, 80, 74, 71, 59, 50], [93, 91, 63, 51, 49], [98, 92, 91, 87, 85, 84, 79, 75, 72, 71, 69], [95, 94, 91, 86, 81, 77, 74, 66, 49], [97, 96, 85, 81, 57, 49], [91, 88, 85, 82, 80, 78, 75, 69, 59], [95, 91, 90, 89, 82, 80, 75, 74, 59], [94, 90, 87, 79, 76, 75, 74, 70, 64], [98, 97, 87, 85, 84, 81, 79, 76, 74, 71], [99, 83, 82, 76, 65, 63], [88, 71, 70, 63], [96, 87, 82, 81, 78, 77, 76], [93, 88, 81, 79, 77, 75], [97, 81, 78, 77, 76, 74], [92, 90, 89, 84, 76, 75], [80, 79, 78, 76, 75, 74], [96, 83, 76, 69, 68], [83, 80, 79, 78, 75], [88, 87, 85, 78, 75], [86, 84, 80, 77, 76], [81, 80, 78, 75, 74], [90, 79, 76, 75, 74], [94, 84, 80, 76, 74], [96, 85, 77, 73], [81, 77, 64], [86, 76, 75, 74], [95, 92, 79, 74], [81, 77, 76], [92, 88, 74], [86, 79, 76], [82, 68], [75, 74], [82, 78], [78, 75], [83, 79], [78, 75], [74], [74], [80], [77], [76], [75], [102], [102], [102], [102], [102], [102], [102], [102], [102], [102], [102], [102], [102], [102], [102], [102], [102], [102], [102], [102], [102], [102], [102], [102], [102], [102], [102], [102], []]
letting durations = [[0], [1, 8, 9], [2, 3, 7], [1, 6, 8], [4, 9, 9], [2, 7, 8], [4, 8, 8], [4, 6, 7], [4, 7, 10], [1, 2, 3], [1, 4, 8], [1, 4, 10], [3, 6, 7], [1, 3, 4], [4, 5, 7], [4, 5, 10], [5, 6, 7], [3, 8, 9], [3, 7, 8], [1, 3, 8], [2, 4, 10], [3, 4, 10], [2, 6, 9], [1, 2, 10], [2, 3, 10], [5, 10, 10], [2, 9, 10], [4, 8, 10], [1, 2, 4], [6, 9, 10], [2, 8, 10], [2, 3, 8], [7, 10, 10], [1, 3, 10], [5, 5, 8], [5, 6, 9], [2, 6, 7], [7, 10, 10], [1, 6, 7], [2, 6, 7], [1, 2, 8], [5, 7, 8], [6, 8, 9], [2, 5, 10], [3, 3, 8], [1, 9, 10], [3, 5, 9], [2, 4, 10], [1, 7, 8], [1, 5, 6], [4, 5, 6], [1, 3, 5], [1, 2, 5], [1, 2, 4], [3, 6, 8], [2, 4, 6], [5, 6, 9], [4, 6, 10], [2, 3, 5], [2, 6, 7], [7, 7, 10], [4, 4, 9], [7, 9, 10], [3, 3, 10], [4, 6, 7], [1, 6, 7], [1, 2, 5], [4, 4, 7], [2, 2, 6], [3, 4, 5], [8, 9, 9], [3, 7, 10], [1, 2, 3], [2, 2, 3], [2, 9, 10], [8, 9, 9], [3, 6, 9], [4, 6, 7], [1, 3, 8], [4, 4, 5], [1, 3, 7], [2, 6, 9], [1, 8, 9], [1, 9, 10], [4, 5, 7], [6, 9, 10], [3, 5, 10], [3, 7, 9], [2, 7, 8], [4, 6, 9], [6, 9, 9], [4, 6, 8], [3, 4, 9], [1, 2, 7], [3, 4, 5], [2, 4, 9], [4, 10, 10], [2, 5, 5], [2, 2, 4], [4, 8, 9], [4, 5, 10], [0]]
letting resourceUsage = [[[0, 0, 0, 0]], [[7, 0, 5, 0], [6, 0, 4, 0], [5, 0, 0, 5]], [[8, 0, 1, 0], [0, 6, 0, 5], [7, 0, 0, 5]], [[0, 7, 0, 6], [4, 0, 4, 0], [3, 0, 0, 4]], [[0, 7, 0, 5], [0, 6, 0, 3], [2, 0, 4, 0]], [[0, 4, 0, 2], [0, 4, 0, 1], [3, 0, 0, 1]], [[0, 3, 0, 10], [6, 0, 0, 10], [0, 3, 0, 9]], [[0, 7, 0, 8], [2, 0, 0, 8], [0, 2, 2, 0]], [[0, 4, 6, 0], [0, 3, 5, 0], [0, 1, 2, 0]], [[0, 9, 0, 9], [6, 0, 2, 0], [0, 4, 2, 0]], [[7, 0, 7, 0], [0, 9, 7, 0], [5, 0, 0, 4]], [[8, 0, 0, 3], [0, 9, 8, 0], [6, 0, 0, 3]], [[9, 0, 0, 10], [7, 0, 0, 7], [5, 0, 0, 5]], [[0, 5, 4, 0], [7, 0, 0, 5], [7, 0, 0, 3]], [[5, 0, 0, 9], [5, 0, 5, 0], [0, 4, 0, 2]], [[5, 0, 0, 10], [5, 0, 5, 0], [3, 0, 5, 0]], [[0, 8, 5, 0], [0, 8, 0, 3], [0, 8, 2, 0]], [[0, 5, 9, 0], [5, 0, 0, 4], [4, 0, 7, 0]], [[9, 0, 0, 7], [8, 0, 3, 0], [8, 0, 0, 7]], [[9, 0, 7, 0], [6, 0, 0, 3], [6, 0, 0, 2]], [[0, 2, 7, 0], [0, 1, 0, 5], [4, 0, 7, 0]], [[5, 0, 6, 0], [5, 0, 0, 6], [0, 2, 0, 3]], [[0, 7, 1, 0], [0, 6, 0, 7], [6, 0, 1, 0]], [[0, 9, 0, 6], [0, 6, 0, 6], [7, 0, 0, 2]], [[0, 10, 9, 0], [3, 0, 7, 0], [0, 8, 0, 4]], [[8, 0, 4, 0], [0, 7, 0, 7], [5, 0, 0, 7]], [[0, 5, 7, 0], [4, 0, 0, 2], [3, 0, 0, 1]], [[8, 0, 0, 5], [0, 7, 3, 0], [0, 5, 0, 3]], [[0, 7, 0, 6], [0, 7, 0, 5], [5, 0, 6, 0]], [[8, 0, 6, 0], [6, 0, 0, 5], [4, 0, 4, 0]], [[0, 10, 0, 4], [4, 0, 0, 2], [0, 2, 3, 0]], [[0, 6, 3, 0], [0, 5, 3, 0], [4, 0, 3, 0]], [[0, 9, 0, 9], [2, 0, 0, 7], [0, 5, 0, 7]], [[1, 0, 0, 9], [0, 8, 0, 9], [0, 6, 0, 9]], [[8, 0, 0, 3], [4, 0, 3, 0], [2, 0, 2, 0]], [[8, 0, 9, 0], [6, 0, 0, 4], [4, 0, 6, 0]], [[0, 9, 0, 8], [0, 9, 0, 6], [2, 0, 0, 4]], [[7, 0, 0, 7], [7, 0, 0, 5], [0, 6, 2, 0]], [[7, 0, 3, 0], [0, 8, 3, 0], [6, 0, 3, 0]], [[7, 0, 0, 2], [6, 0, 6, 0], [0, 5, 0, 2]], [[7, 0, 3, 0], [0, 7, 0, 3], [0, 6, 0, 3]], [[1, 0, 0, 6], [1, 0, 4, 0], [1, 0, 0, 4]], [[0, 8, 0, 9], [6, 0, 7, 0], [0, 6, 7, 0]], [[0, 5, 2, 0], [5, 0, 0, 3], [3, 0, 0, 3]], [[10, 0, 9, 0], [0, 6, 0, 8], [10, 0, 8, 0]], [[0, 8, 0, 6], [0, 8, 4, 0], [0, 8, 3, 0]], [[3, 0, 0, 5], [0, 6, 0, 5], [3, 0, 0, 4]], [[0, 5, 0, 4], [5, 0, 3, 0], [2, 0, 1, 0]], [[0, 9, 7, 0], [5, 0, 0, 10], [0, 1, 0, 10]], [[0, 1, 0, 7], [6, 0, 6, 0], [3, 0, 5, 0]], [[9, 0, 9, 0], [0, 7, 0, 3], [0, 2, 0, 3]], [[7, 0, 9, 0], [6, 0, 9, 0], [4, 0, 9, 0]], [[9, 0, 5, 0], [0, 3, 0, 6], [0, 3, 1, 0]], [[9, 0, 7, 0], [8, 0, 0, 5], [6, 0, 0, 4]], [[8, 0, 0, 9], [0, 7, 0, 9], [0, 5, 0, 9]], [[0, 9, 2, 0], [0, 8, 0, 4], [6, 0, 2, 0]], [[0, 9, 6, 0], [0, 8, 5, 0], [4, 0, 4, 0]], [[0, 6, 0, 7], [0, 6, 0, 6], [1, 0, 0, 6]], [[9, 0, 0, 7], [9, 0, 9, 0], [0, 5, 8, 0]], [[0, 8, 9, 0], [0, 7, 7, 0], [0, 7, 6, 0]], [[0, 10, 2, 0], [5, 0, 2, 0], [0, 9, 2, 0]], [[0, 10, 0, 9], [0, 7, 7, 0], [0, 7, 5, 0]], [[4, 0, 0, 9], [3, 0, 5, 0], [0, 7, 4, 0]], [[0, 2, 0, 3], [0, 1, 3, 0], [0, 1, 0, 2]], [[9, 0, 10, 0], [0, 7, 7, 0], [0, 6, 6, 0]], [[0, 4, 0, 8], [7, 0, 0, 7], [0, 4, 10, 0]], [[6, 0, 8, 0], [0, 2, 0, 4], [5, 0, 5, 0]], [[8, 0, 0, 8], [0, 7, 3, 0], [2, 0, 2, 0]], [[0, 8, 0, 6], [5, 0, 9, 0], [0, 4, 0, 3]], [[0, 5, 7, 0], [3, 0, 0, 3], [3, 0, 0, 2]], [[0, 10, 7, 0], [4, 0, 7, 0], [0, 3, 7, 0]], [[0, 6, 9, 0], [7, 0, 0, 9], [7, 0, 0, 8]], [[0, 6, 7, 0], [0, 4, 6, 0], [3, 0, 0, 6]], [[0, 5, 0, 9], [0, 5, 3, 0], [0, 5, 0, 3]], [[0, 3, 10, 0], [0, 2, 0, 5], [0, 2, 0, 4]], [[8, 0, 4, 0], [5, 0, 0, 4], [0, 2, 2, 0]], [[0, 3, 9, 0], [0, 2, 0, 7], [0, 2, 8, 0]], [[0, 10, 2, 0], [0, 9, 2, 0], [0, 9, 1, 0]], [[7, 0, 6, 0], [0, 2, 0, 5], [0, 2, 0, 2]], [[0, 8, 5, 0], [0, 6, 0, 7], [0, 1, 0, 5]], [[0, 9, 0, 5], [0, 9, 0, 4], [0, 9, 0, 3]], [[9, 0, 0, 8], [0, 4, 0, 7], [4, 0, 0, 6]], [[0, 10, 6, 0], [6, 0, 0, 4], [0, 4, 4, 0]], [[0, 4, 8, 0], [3, 0, 0, 1], [0, 3, 4, 0]], [[1, 0, 8, 0], [0, 5, 7, 0], [1, 0, 0, 4]], [[8, 0, 5, 0], [7, 0, 5, 0], [0, 1, 5, 0]], [[7, 0, 0, 3], [0, 4, 0, 1], [5, 0, 2, 0]], [[5, 0, 6, 0], [0, 7, 0, 4], [5, 0, 0, 1]], [[6, 0, 9, 0], [0, 8, 0, 1], [3, 0, 0, 1]], [[2, 0, 7, 0], [0, 4, 0, 6], [2, 0, 5, 0]], [[0, 5, 10, 0], [6, 0, 0, 5], [0, 4, 8, 0]], [[0, 8, 0, 2], [4, 0, 8, 0], [0, 6, 0, 1]], [[0, 4, 0, 8], [0, 2, 0, 6], [4, 0, 0, 5]], [[0, 9, 8, 0], [0, 7, 6, 0], [0, 6, 6, 0]], [[0, 6, 9, 0], [6, 0, 0, 5], [6, 0, 9, 0]], [[0, 9, 10, 0], [0, 7, 6, 0], [0, 5, 0, 5]], [[5, 0, 0, 8], [4, 0, 9, 0], [3, 0, 0, 5]], [[0, 1, 5, 0], [6, 0, 0, 5], [6, 0, 3, 0]], [[8, 0, 0, 10], [4, 0, 8, 0], [0, 4, 6, 0]], [[0, 6, 0, 9], [6, 0, 4, 0], [0, 5, 0, 8]], [[4, 0, 0, 4], [3, 0, 0, 4], [0, 5, 0, 4]], [[0, 0, 0, 0]]]
